% seed = 0

mint = 40;
% maxt = 171;

nActs = 62;
dur = [0,4,2,1,4,4,5,6,3,3,3,1,2,2,2,3,3,1,2,4,4,1,2,3,4,3,4,2,5,5,3,4,2,3,4,3,3,2,2,5,2,2,2,4,4,1,5,1,2,5,1,2,3,2,1,3,2,3,2,2,3,0];

nSkills = 9;
sreq = [| 0,0,0,0,0,0,0,0,0,
	| 0,0,0,0,0,1,0,0,1,
	| 0,0,0,0,0,0,0,0,1,
	| 0,0,1,0,0,0,0,0,1,
	| 0,0,0,0,1,0,0,0,1,
	| 0,1,0,0,0,0,0,0,1,
	| 0,0,0,2,0,0,0,0,0,
	| 0,0,0,0,1,0,0,0,0,
	| 0,1,0,0,0,1,0,0,1,
	| 0,0,0,1,0,1,0,0,1,
	| 0,0,0,0,1,0,0,0,1,
	| 0,0,0,0,0,1,0,0,2,
	| 0,0,0,1,0,0,0,0,2,
	| 0,0,0,0,0,0,0,0,1,
	| 0,0,0,0,0,0,0,0,1,
	| 0,1,0,0,0,1,0,0,0,
	| 0,0,0,0,1,1,0,0,0,
	| 0,0,1,1,0,0,0,0,1,
	| 0,0,0,1,0,0,0,0,0,
	| 0,0,0,0,0,1,0,0,1,
	| 0,0,0,0,0,1,0,0,1,
	| 0,0,0,0,0,1,0,0,2,
	| 0,0,0,0,0,1,0,0,0,
	| 0,0,0,0,1,1,0,0,0,
	| 0,0,0,0,0,2,0,0,0,
	| 0,0,0,0,0,0,0,0,1,
	| 0,0,0,0,1,0,0,0,1,
	| 0,0,1,1,0,0,0,0,1,
	| 0,0,0,0,0,1,0,0,2,
	| 0,0,0,0,0,0,0,0,2,
	| 0,0,0,0,0,1,0,0,2,
	| 0,0,0,0,0,2,0,0,0,
	| 0,0,0,0,0,0,0,0,1,
	| 0,0,0,1,0,0,0,0,1,
	| 0,0,0,0,0,0,0,0,1,
	| 0,0,1,0,0,1,0,0,0,
	| 0,0,0,0,0,0,0,0,1,
	| 1,0,0,0,0,1,0,0,1,
	| 0,0,0,1,1,0,0,0,0,
	| 0,0,0,2,0,0,0,0,1,
	| 0,0,1,1,0,0,0,0,0,
	| 0,0,0,0,0,0,0,0,1,
	| 0,0,0,0,0,0,1,0,1,
	| 0,0,0,0,0,1,0,0,1,
	| 0,0,0,0,0,1,0,0,0,
	| 0,0,0,0,0,0,0,0,1,
	| 0,0,0,1,0,1,0,0,0,
	| 0,0,0,0,0,0,0,0,2,
	| 0,0,0,1,1,0,0,0,1,
	| 0,0,0,0,1,0,0,0,1,
	| 0,0,0,0,0,1,0,0,0,
	| 0,1,0,0,0,0,1,0,0,
	| 0,0,0,0,0,2,0,0,1,
	| 0,1,0,0,1,0,0,0,1,
	| 0,0,0,0,0,1,0,0,0,
	| 0,0,0,1,0,1,0,0,0,
	| 0,1,0,0,1,0,0,0,0,
	| 0,0,0,0,0,1,1,0,1,
	| 0,0,0,0,0,0,0,0,1,
	| 0,0,0,0,1,0,0,1,1,
	| 0,0,0,0,1,1,0,0,1,
	| 0,0,0,0,0,0,0,0,0, |];

% SumOfsreq = 121;

nResources = 9;
mastery = [| false,false,false,true,true,true,false,false,false,
	| false,false,false,false,false,false,false,false,true,
	| false,false,false,true,true,true,true,true,true,
	| false,false,false,false,false,false,false,false,true,
	| true,true,true,false,false,false,false,false,false,
	| false,false,false,false,false,true,false,false,false,
	| false,false,false,true,true,true,false,false,false,
	| false,false,false,false,false,false,false,false,true,
	| false,false,false,false,false,false,true,true,true, |];

nPrecs = 112;
pred = [1,1,1,2,2,2,3,3,3,4,5,5,5,6,6,7,7,7,8,8,8,9,9,9,10,11,11,12,13,13,13,14,14,15,15,15,16,16,17,17,17,18,18,18,19,19,20,20,21,21,22,22,22,23,24,25,25,25,26,26,27,27,28,28,28,29,29,30,30,30,31,31,32,32,33,33,34,34,35,36,37,37,37,38,38,39,40,41,42,43,44,44,45,46,46,47,48,49,50,50,51,52,53,53,54,55,56,57,58,59,60,61];
succ = [2,3,4,28,5,8,11,6,7,55,61,13,7,9,45,10,29,40,33,12,39,21,14,24,14,18,19,36,19,20,15,26,32,17,39,16,23,48,27,30,38,22,55,40,34,23,41,46,41,28,34,28,23,25,36,33,57,47,41,31,34,37,49,43,51,36,54,35,37,48,44,53,55,48,44,38,58,51,52,56,44,47,40,42,53,43,42,49,54,56,51,52,57,49,47,50,56,58,52,53,54,58,59,60,60,59,57,59,60,62,62,62];

nUnrels = 1097;
unpred = [2,2,2,2,2,2,2,2,2,2,3,3,3,3,3,3,3,3,3,3,3,3,3,3,3,3,4,4,4,4,4,4,4,4,4,4,4,4,4,4,4,4,4,4,4,4,4,4,4,4,4,4,4,4,4,4,4,4,4,4,4,4,4,4,4,4,4,4,4,4,4,4,4,4,4,4,4,4,4,4,4,5,5,5,5,5,5,5,5,5,5,5,6,6,6,6,6,6,6,6,6,6,6,6,6,6,6,6,6,6,6,6,6,6,6,6,6,6,6,6,6,6,7,7,7,7,7,7,7,7,7,7,7,7,7,7,7,7,7,7,7,7,7,7,7,7,7,7,7,7,7,7,7,8,8,8,8,8,8,8,8,8,8,8,8,8,8,8,8,8,8,8,8,8,8,8,8,8,8,8,8,8,8,8,8,8,8,8,8,9,9,9,9,9,9,9,9,9,9,9,9,9,9,9,9,9,9,9,9,9,9,9,9,9,9,9,9,9,10,10,10,10,10,10,10,10,10,10,10,10,10,10,10,10,10,10,10,10,10,10,10,10,10,10,10,10,10,10,10,10,10,11,11,11,11,11,11,11,11,11,11,11,11,11,11,11,11,11,11,11,11,11,11,11,11,12,12,12,12,12,12,12,12,12,12,12,12,12,12,12,12,12,12,12,12,12,12,12,12,12,12,12,12,12,12,12,12,12,12,12,12,12,12,12,12,12,12,12,12,12,13,13,13,13,13,13,13,13,13,13,13,13,13,13,14,14,14,14,14,14,14,14,14,14,14,14,14,14,14,14,14,14,14,14,14,14,14,14,14,14,14,14,14,14,15,15,15,15,15,15,15,15,15,15,15,15,15,15,15,15,15,15,16,16,16,16,16,16,16,16,16,16,16,16,16,16,16,16,16,16,16,16,16,16,16,16,16,16,16,17,17,17,17,17,17,17,17,17,17,17,17,17,17,17,17,17,17,17,17,17,17,17,18,18,18,18,18,18,18,18,18,18,18,18,18,18,18,18,18,18,18,19,19,19,19,19,19,19,19,19,19,19,19,19,19,19,19,19,19,19,19,19,19,19,19,19,20,20,20,20,20,20,20,20,20,20,20,20,20,20,20,20,20,20,20,20,20,20,20,20,20,20,20,20,20,20,20,21,21,21,21,21,21,21,21,21,21,21,21,21,21,21,21,21,21,21,21,21,21,21,21,21,21,21,21,21,22,22,22,22,22,22,22,22,22,22,22,22,22,22,22,22,22,22,23,23,23,23,23,23,23,23,23,23,23,23,23,23,23,23,23,23,23,23,23,23,23,24,24,24,24,24,24,24,24,24,24,24,24,24,24,24,24,24,24,24,24,24,24,24,24,24,24,24,24,24,24,24,24,24,25,25,25,25,25,25,25,25,25,25,25,25,25,25,25,25,25,25,25,25,25,25,26,26,26,26,26,26,26,26,26,26,26,26,26,26,26,26,26,26,26,26,26,26,26,26,27,27,27,27,27,27,27,27,27,27,27,27,27,27,27,27,27,27,27,27,28,28,28,28,28,28,28,28,28,28,28,28,28,28,28,28,28,28,28,28,28,28,28,28,29,29,29,29,29,29,29,29,29,29,29,29,29,29,29,29,29,29,29,29,29,29,29,29,29,29,30,30,30,30,30,30,30,30,30,30,30,30,30,30,31,31,31,31,31,31,31,31,31,31,31,31,31,31,31,31,31,31,31,31,31,31,32,32,32,32,32,32,32,32,32,32,32,32,32,32,32,32,32,32,32,32,32,32,32,32,33,33,33,33,33,33,33,33,33,33,33,33,33,33,33,33,33,33,34,34,34,34,34,34,34,34,34,34,34,34,34,34,34,34,34,34,34,34,34,34,34,35,35,35,35,35,35,35,35,35,35,35,35,35,35,35,35,35,35,35,35,35,35,35,36,36,36,36,36,36,36,36,36,36,36,36,36,36,36,36,36,36,36,36,36,36,37,37,37,37,37,37,37,37,37,37,37,37,38,38,38,38,38,38,38,38,38,38,38,38,38,38,38,38,38,38,39,39,39,39,39,39,39,39,39,39,39,39,39,39,39,39,39,39,40,40,40,40,40,40,40,40,40,40,40,40,40,40,40,40,40,40,41,41,41,41,41,41,41,41,41,41,41,41,41,41,41,41,41,42,42,42,42,42,42,42,42,42,42,42,42,42,42,42,42,42,43,43,43,43,43,43,43,43,43,43,43,43,43,43,43,44,44,44,44,44,44,44,44,44,44,44,44,45,45,45,45,45,45,45,45,45,45,45,45,45,45,46,46,46,46,46,46,46,47,47,47,47,47,47,47,47,48,48,48,48,48,48,48,48,48,48,49,49,49,49,49,49,49,49,49,49,50,50,50,50,50,50,51,51,51,51,51,51,51,51,52,52,52,52,52,52,52,53,53,53,53,53,53,54,54,54,54,54,54,55,55,55,55,55,56,56,56,57,57,57,58,58,59,59,60];
unsucc = [3,4,6,9,11,18,21,22,24,45,4,5,8,12,13,15,16,17,20,27,30,35,37,39,46,61,5,6,7,8,9,10,11,12,13,14,15,16,17,18,19,20,21,22,23,24,25,26,27,28,29,30,31,32,33,34,35,36,37,38,39,40,41,42,43,44,45,46,47,48,49,50,51,52,53,54,56,57,58,60,61,6,8,9,11,12,18,21,22,24,28,45,7,8,10,11,12,13,15,16,17,18,19,20,22,23,25,27,29,30,33,34,35,37,38,39,40,42,46,47,50,61,8,9,11,12,13,15,16,17,18,19,20,21,22,23,24,25,27,28,30,33,34,35,37,38,39,43,45,46,47,50,61,9,10,11,13,14,15,16,17,18,19,20,21,22,23,24,25,26,27,28,29,30,31,32,34,35,37,40,41,45,46,47,48,49,50,55,61,10,11,12,13,15,16,17,18,19,20,22,23,25,27,29,30,33,34,35,37,38,39,40,42,45,46,47,50,61,11,12,13,15,16,17,18,19,20,21,22,23,24,25,27,28,29,30,33,34,35,36,37,38,39,40,42,43,45,46,47,50,61,12,13,14,15,16,17,20,21,24,26,27,29,30,31,32,35,36,37,39,41,45,46,48,61,13,14,15,16,17,18,19,20,21,22,23,24,25,26,27,28,29,30,31,32,33,34,35,37,38,39,40,41,42,43,44,45,46,47,48,49,50,51,52,53,54,55,58,60,61,14,18,21,22,24,26,28,29,31,32,36,45,55,61,15,16,17,18,19,20,21,22,23,24,25,27,28,29,30,33,34,35,36,37,38,39,40,42,43,45,46,47,50,61,18,19,20,21,22,24,26,28,29,31,32,36,41,45,46,49,55,61,17,18,19,20,21,22,24,26,27,28,29,30,31,32,34,35,36,37,39,40,41,43,45,46,49,55,61,18,19,20,21,22,23,24,25,26,28,29,31,32,33,36,39,41,43,45,46,49,55,61,19,20,21,24,26,27,29,30,31,32,35,36,37,39,41,45,46,48,61,20,21,22,24,26,27,28,29,30,31,32,35,36,37,39,40,41,43,45,46,48,49,55,56,61,21,22,23,24,25,26,27,28,29,30,31,32,33,34,35,36,37,38,39,40,42,43,44,45,48,51,54,55,56,57,61,22,23,24,25,26,27,29,30,31,32,33,34,35,36,37,38,39,40,42,44,45,46,47,48,50,52,53,55,61,24,26,27,29,30,31,32,35,36,37,39,40,41,45,46,48,55,61,24,26,27,28,29,30,31,32,34,35,36,37,39,40,41,43,45,46,48,49,55,56,61,25,26,27,28,29,30,31,32,33,34,35,37,38,39,40,41,42,43,44,45,46,47,48,49,50,51,52,53,54,55,58,60,61,26,27,28,29,30,31,32,34,35,36,37,39,40,41,43,45,46,48,49,55,56,61,27,28,29,30,32,33,34,35,36,37,38,39,40,42,43,45,46,47,48,50,55,56,57,61,28,29,30,31,32,33,35,36,38,39,41,43,45,46,48,49,55,56,57,61,29,30,31,32,33,34,35,36,37,38,39,40,41,42,44,45,46,47,48,50,52,53,55,61,30,31,32,33,34,35,37,38,39,40,41,42,43,44,45,46,47,48,49,50,51,52,53,55,58,61,31,32,33,34,36,38,39,41,43,45,46,49,55,61,32,33,34,35,36,37,38,39,40,41,42,43,45,46,47,48,49,50,55,56,57,61,33,34,35,36,37,38,39,40,41,42,43,44,45,46,47,49,50,51,52,53,54,58,60,61,34,35,36,37,39,40,41,43,45,46,47,48,49,50,55,56,57,61,35,36,37,38,39,40,41,42,43,44,45,46,47,48,49,50,52,53,55,56,57,59,61,36,37,38,39,40,41,42,43,44,45,46,47,48,49,50,51,53,54,55,56,57,59,61,37,38,39,40,41,42,43,44,45,46,47,48,49,50,51,52,53,54,55,58,60,61,38,39,41,43,45,46,48,49,55,56,57,61,39,40,41,43,44,45,46,47,48,49,50,51,52,55,56,57,58,61,40,41,42,44,45,46,47,48,49,50,51,52,53,54,55,58,60,61,41,43,44,45,46,47,48,49,50,51,52,53,55,56,57,58,59,61,42,43,44,45,46,47,48,50,51,52,53,54,55,56,57,59,61,43,44,45,46,47,48,49,50,51,52,53,55,56,57,58,59,61,44,45,46,47,48,49,50,51,52,53,54,55,58,60,61,45,46,47,48,49,50,53,55,56,57,59,61,46,47,48,49,50,51,52,53,54,55,56,58,60,61,48,51,54,55,56,57,61,48,49,51,54,55,56,57,61,49,50,51,52,53,54,55,58,60,61,50,51,52,53,54,55,56,57,59,61,51,54,55,56,57,61,52,53,55,56,57,58,59,61,53,54,55,56,57,59,61,54,55,56,57,58,61,55,56,57,58,59,61,56,57,58,60,61,58,60,61,58,60,61,59,61,60,61,61];

USEFUL_RES = [{},
	{1,2,3,4,6,7,8,9},
	{2,3,4,8,9},
	{2,3,4,5,8,9},
	{1,2,3,4,7,8,9},
	{2,3,4,5,8,9},
	{1,3,7},
	{1,3,7},
	{1,2,3,4,5,6,7,8,9},
	{1,2,3,4,6,7,8,9},
	{1,2,3,4,7,8,9},
	{1,2,3,4,6,7,8,9},
	{1,2,3,4,7,8,9},
	{2,3,4,8,9},
	{2,3,4,8,9},
	{1,3,5,6,7},
	{1,3,6,7},
	{1,2,3,4,5,7,8,9},
	{1,3,7},
	{1,2,3,4,6,7,8,9},
	{1,2,3,4,6,7,8,9},
	{1,2,3,4,6,7,8,9},
	{1,3,6,7},
	{1,3,6,7},
	{1,3,6,7},
	{2,3,4,8,9},
	{1,2,3,4,7,8,9},
	{1,2,3,4,5,7,8,9},
	{1,2,3,4,6,7,8,9},
	{2,3,4,8,9},
	{1,2,3,4,6,7,8,9},
	{1,3,6,7},
	{2,3,4,8,9},
	{1,2,3,4,7,8,9},
	{2,3,4,8,9},
	{1,3,5,6,7},
	{2,3,4,8,9},
	{1,2,3,4,5,6,7,8,9},
	{1,3,7},
	{1,2,3,4,7,8,9},
	{1,3,5,7},
	{2,3,4,8,9},
	{2,3,4,8,9},
	{1,2,3,4,6,7,8,9},
	{1,3,6,7},
	{2,3,4,8,9},
	{1,3,6,7},
	{2,3,4,8,9},
	{1,2,3,4,7,8,9},
	{1,2,3,4,7,8,9},
	{1,3,6,7},
	{3,5,9},
	{1,2,3,4,6,7,8,9},
	{1,2,3,4,5,7,8,9},
	{1,3,6,7},
	{1,3,6,7},
	{1,3,5,7},
	{1,2,3,4,6,7,8,9},
	{2,3,4,8,9},
	{1,2,3,4,7,8,9},
	{1,2,3,4,6,7,8,9},
	{}];

POTENTIAL_ACT = [{2,5,7,8,9,10,11,12,13,16,17,18,19,20,21,22,23,24,25,27,28,29,31,32,34,36,38,39,40,41,44,45,47,49,50,51,53,54,55,56,57,58,60,61},
	{2,3,4,5,6,9,10,11,12,13,14,15,18,20,21,22,26,27,28,29,30,31,33,34,35,37,38,40,42,43,44,46,48,49,50,53,54,58,59,60,61},
	{2,3,4,5,6,7,8,9,10,11,12,13,14,15,16,17,18,19,20,21,22,23,24,25,26,27,28,29,30,31,32,33,34,35,36,37,38,39,40,41,42,43,44,45,46,47,48,49,50,51,52,53,54,55,56,57,58,59,60,61},
	{2,3,4,5,6,9,10,11,12,13,14,15,18,20,21,22,26,27,28,29,30,31,33,34,35,37,38,40,42,43,44,46,48,49,50,53,54,58,59,60,61},
	{4,6,9,16,18,28,36,38,41,52,54,57},
	{2,9,10,12,16,17,20,21,22,23,24,25,29,31,32,36,38,44,45,47,51,53,55,56,58,61},
	{2,5,7,8,9,10,11,12,13,16,17,18,19,20,21,22,23,24,25,27,28,29,31,32,34,36,38,39,40,41,44,45,47,49,50,51,53,54,55,56,57,58,60,61},
	{2,3,4,5,6,9,10,11,12,13,14,15,18,20,21,22,26,27,28,29,30,31,33,34,35,37,38,40,42,43,44,46,48,49,50,53,54,58,59,60,61},
	{2,3,4,5,6,9,10,11,12,13,14,15,18,20,21,22,26,27,28,29,30,31,33,34,35,37,38,40,42,43,44,46,48,49,50,52,53,54,58,59,60,61}];
